40
0 1 0.48 0.35
0 2 0.64 0.23
0 3 0.67 0.34
0 4 0.66 0.04
0 5 0.48 0.37
0 6 0.78 0.36
0 7 0.18 0.1
0 8 0.48 0.21
0 9 0.48 0.23
0 10 0.54 0.26
0 11 0.32 0.24
0 12 0.4 0.2
0 13 0.63 0.2
0 14 0.64 0.26
0 15 0.54 0.26
0 16 0.7 0.22
0 17 0.58 0.1
0 18 0.43 0.32
0 19 0.54 0.21
0 20 0.5 0.44
0 21 0.56 0.2
0 22 0.62 0.33
0 23 0.75 0.32
0 24 0.77 0.27
0 25 0.48 0.31
0 26 0.32 0.24
0 27 0.63 0.17
0 28 0.68 0.25
0 29 0.69 0.34
0 30 0.43 0.22
0 31 0.62 0.31
0 32 0.48 0.12
0 33 0.62 0.25
0 34 0.67 0.18
0 35 0.65 0.22
0 36 0.58 0.2
0 37 0.64 0.17
0 38 0.48 0.3
0 39 0.53 0.23
1 2 0.65 0.25
1 3 0.7 0.21
1 4 0.6 0.32
1 5 0.7 0.22
1 6 0.63 0.21
1 7 0.3 0.26
1 8 0.64 0.32
1 9 0.79 0.21
1 10 0.42 0.09
1 11 0.52 0.17
1 12 0.52 0.2
1 13 0.58 0.18
1 14 0.73 0.17
1 15 0.3 0.12
1 16 0.58 0.14
1 17 0.38 0.28
1 18 0.4 0.27
1 19 0.48 0.17
1 20 0.52 0.16
1 21 0.79 0.21
1 22 0.7 0.25
1 23 0.65 0.27
1 24 0.6 0.19
1 25 0.32 0.23
1 26 0.68 0.11
1 27 0.47 0.32
1 28 0.81 0.15
1 29 0.48 0.06
1 30 0.64 0.24
1 31 0.74 0.34
1 32 0.62 0.26
1 33 0.56 0.25
1 34 0.6 0.32
1 35 0.55 0.23
1 36 0.7 0.19
1 37 0.43 0.28
1 38 0.68 0.13
1 39 0.58 0.29
2 3 0.49 0.27
2 4 0.6 0.19
2 5 0.64 0.28
2 6 0.42 0.24
2 7 0.46 0.14
2 8 0.71 0.32
2 9 0.54 0.16
2 10 0.86 0.19
2 11 0.58 0.22
2 12 0.44 0.1
2 13 0.32 0.23
2 14 0.46 0.17
2 15 0.35 0.25
2 16 0.55 0.11
2 17 0.67 0.13
2 18 0.85 0.32
2 19 0.7 0.2
2 20 0.47 0.34
2 21 0.23 0.04
2 22 0.6 0.29
2 23 0.47 0.23
2 24 0.6 0.19
2 25 0.66 0.31
2 26 0.62 0.21
2 27 0.67 0.2
2 28 0.64 0.15
2 29 0.56 0.24
2 30 0.46 0.21
2 31 0.53 0.22
2 32 0.34 0.11
2 33 0.6 0.24
2 34 0.58 0.17
2 35 0.37 0.25
2 36 0.48 0.13
2 37 0.33 0.25
2 38 0.83 0.15
2 39 0.81 0.22
3 4 0.38 0.3
3 5 0.39 0.19
3 6 0.27 0.21
3 7 0.49 0.31
3 8 0.56 0.29
3 9 0.78 0.26
3 10 0.68 0.16
3 11 0.59 0.24
3 12 0.52 0.25
3 13 0.67 0.24
3 14 0.36 0.22
3 15 0.42 0.18
3 16 0.68 0.18
3 17 0.38 0.24
3 18 0.65 0.34
3 19 0.61 0.24
3 20 0.4 0.24
3 21 0.6 0.23
3 22 0.62 0.32
3 23 0.66 0.33
3 24 0.5 0.24
3 25 0.39 0.3
3 26 0.42 0.18
3 27 0.29 0.17
3 28 0.42 0.2
3 29 0.24 0.15
3 30 0.49 0.3
3 31 0.3 0.19
3 32 0.73 0.26
3 33 0.4 0.3
3 34 0.59 0.32
3 35 0.72 0.29
3 36 0.6 0.26
3 37 0.58 0.22
3 38 0.34 0.12
3 39 0.34 0.16
4 5 0.61 0.35
4 6 0.58 0.32
4 7 0.58 0.14
4 8 0.65 0.25
4 9 0.6 0.19
4 10 0.58 0.25
4 11 0.66 0.28
4 12 0.61 0.16
4 13 0.5 0.23
4 14 0.37 0.23
4 15 0.7 0.22
4 16 0.3 0.18
4 17 0.24 0.06
4 18 0.56 0.28
4 19 0.6 0.17
4 20 0.52 0.4
4 21 0.62 0.23
4 22 0.66 0.3
4 23 0.65 0.28
4 24 0.46 0.25
4 25 0.64 0.32
4 26 0.34 0.24
4 27 0.33 0.13
4 28 0.73 0.21
4 29 0.46 0.3
4 30 0.63 0.18
4 31 0.45 0.35
4 32 0.54 0.08
4 33 0.46 0.21
4 34 0.61 0.14
4 35 0.55 0.18
4 36 0.48 0.16
4 37 0.27 0.13
4 38 0.36 0.27
4 39 0.56 0.19
5 6 0.55 0.28
5 7 0.56 0.27
5 8 0.69 0.34
5 9 0.7 0.28
5 10 0.49 0.16
5 11 0.38 0.24
5 12 0.66 0.23
5 13 0.32 0.28
5 14 0.4 0.2
5 15 0.4 0.34
5 16 0.54 0.31
5 17 0.55 0.29
5 18 0.66 0.32
5 19 0.56 0.24
5 20 0.45 0.26
5 21 0.73 0.24
5 22 0.5 0.2
5 23 0.47 0.42
5 24 0.39 0.14
5 25 0.42 0.22
5 26 0.58 0.14
5 27 0.46 0.36
5 28 0.68 0.18
5 29 0.63 0.16
5 30 0.57 0.27
5 31 0.69 0.38
5 32 0.46 0.27
5 33 0.75 0.29
5 34 0.55 0.3
5 35 0.37 0.32
5 36 0.59 0.22
5 37 0.48 0.31
5 38 0.55 0.2
5 39 0.48 0.28
6 7 0.76 0.3
6 8 0.38 0.18
6 9 0.67 0.24
6 10 0.62 0.12
6 11 0.62 0.2
6 12 0.79 0.3
6 13 0.59 0.28
6 14 0.61 0.25
6 15 0.69 0.31
6 16 0.88 0.27
6 17 0.65 0.26
6 18 0.55 0.3
6 19 0.7 0.15
6 20 0.67 0.33
6 21 0.44 0.2
6 22 0.81 0.27
6 23 0.55 0.27
6 24 0.56 0.31
6 25 0.66 0.26
6 26 0.66 0.14
6 27 0.56 0.33
6 28 0.5 0.27
6 29 0.51 0.23
6 30 0.64 0.34
6 31 0.57 0.28
6 32 0.6 0.24
6 33 0.58 0.18
6 34 0.72 0.26
6 35 0.54 0.28
6 36 0.66 0.22
6 37 0.31 0.21
6 38 0.61 0.16
6 39 0.61 0.27
7 8 0.46 0.31
7 9 0.56 0.19
7 10 0.64 0.25
7 11 0.5 0.28
7 12 0.58 0.24
7 13 0.55 0.1
7 14 0.46 0.22
7 15 0.6 0.16
7 16 0.78 0.17
7 17 0.45 0.2
7 18 0.61 0.38
7 19 0.36 0.31
7 20 0.38 0.38
7 21 0.54 0.1
7 22 0.67 0.23
7 23 0.6 0.25
7 24 0.66 0.17
7 25 0.62 0.21
7 26 0.5 0.26
7 27 0.54 0.27
7 28 0.56 0.21
7 29 0.73 0.3
7 30 0.61 0.23
7 31 0.79 0.28
7 32 0.66 0.22
7 33 0.62 0.19
7 34 0.5 0.16
7 35 0.5 0.15
7 36 0.4 0.27
7 37 0.46 0.11
7 38 0.62 0.21
7 39 0.71 0.15
8 9 0.72 0.41
8 10 0.57 0.3
8 11 0.75 0.32
8 12 0.64 0.35
8 13 0.61 0.33
8 14 0.58 0.32
8 15 0.39 0.35
8 16 0.53 0.35
8 17 0.63 0.3
8 18 0.84 0.42
8 19 0.68 0.33
8 20 0.7 0.36
8 21 0.62 0.28
8 22 0.86 0.3
8 23 0.65 0.38
8 24 0.56 0.34
8 25 0.74 0.28
8 26 0.75 0.3
8 27 0.54 0.37
8 28 0.42 0.3
8 29 0.32 0.26
8 30 0.66 0.3
8 31 0.6 0.1
8 32 0.56 0.28
8 33 0.65 0.36
8 34 0.67 0.32
8 35 0.56 0.28
8 36 0.44 0.22
8 37 0.38 0.3
8 38 0.42 0.34
8 39 0.62 0.3
9 10 0.7 0.12
9 11 0.79 0.2
9 12 0.52 0.06
9 13 0.75 0.09
9 14 0.62 0.13
9 15 0.76 0.15
9 16 0.41 0.08
9 17 0.41 0.13
9 18 0.64 0.3
9 19 0.88 0.2
9 20 0.6 0.3
9 21 0.76 0.15
9 22 0.62 0.25
9 23 0.78 0.24
9 24 0.63 0.15
9 25 0.68 0.26
9 26 0.54 0.14
9 27 0.5 0.2
9 28 0.36 0.11
9 29 0.82 0.2
9 30 0.48 0.22
9 31 0.56 0.33
9 32 0.54 0.15
9 33 0.44 0.19
9 34 0.79 0.21
9 35 0.76 0.14
9 36 0.66 0.22
9 37 0.38 0.24
9 38 0.56 0.16
9 39 0.84 0.2
10 11 0.81 0.08
10 12 0.74 0.18
10 13 0.63 0.21
10 14 0.68 0.16
10 15 0.61 0.21
10 16 0.86 0.2
10 17 0.66 0.19
10 18 0.74 0.18
10 19 0.52 0.08
10 20 0.39 0.21
10 21 0.64 0.15
10 22 0.61 0.16
10 23 0.68 0.26
10 24 0.62 0.22
10 25 0.6 0.14
10 26 0.52 0.02
10 27 0.57 0.26
10 28 0.47 0.18
10 29 0.44 0.11
10 30 0.58 0.26
10 31 0.82 0.33
10 32 0.79 0.17
10 33 0.46 0.18
10 34 0.46 0.23
10 35 0.58 0.16
10 36 0.68 0.1
10 37 0.62 0.26
10 38 0.57 0.04
10 39 0.56 0.24
11 12 0.72 0.26
11 13 0.45 0.29
11 14 0.52 0.24
11 15 0.58 0.29
11 16 0.38 0.22
11 17 0.64 0.26
11 18 0.52 0.1
11 19 0.5 0.16
11 20 0.65 0.29
11 21 0.35 0.18
11 22 0.44 0.24
11 23 0.49 0.23
11 24 0.54 0.3
11 25 0.67 0.22
11 26 0.42 0.1
11 27 0.71 0.33
11 28 0.65 0.26
11 29 0.64 0.19
11 30 0.57 0.32
11 31 0.65 0.3
11 32 0.25 0.24
11 33 0.49 0.26
11 34 0.55 0.3
11 35 0.4 0.24
11 36 0.54 0.18
11 37 0.7 0.34
11 38 0.73 0.12
11 39 0.68 0.32
12 13 0.57 0.15
12 14 0.69 0.07
12 15 0.64 0.21
12 16 0.56 0.14
12 17 0.68 0.19
12 18 0.68 0.33
12 19 0.54 0.17
12 20 0.72 0.24
12 21 0.67 0.14
12 22 0.58 0.19
12 23 0.53 0.3
12 24 0.66 0.09
12 25 0.69 0.21
12 26 0.52 0.2
12 27 0.77 0.26
12 28 0.76 0.05
12 29 0.76 0.14
12 30 0.66 0.17
12 31 0.46 0.32
12 32 0.51 0.21
12 33 0.28 0.14
12 34 0.66 0.25
12 35 0.52 0.2
12 36 0.5 0.23
12 37 0.55 0.18
12 38 0.6 0.22
12 39 0.62 0.19
13 14 0.68 0.22
13 15 0.28 0.06
13 16 0.62 0.17
13 17 0.49 0.17
13 18 0.55 0.28
13 19 0.53 0.28
13 20 0.48 0.28
13 21 0.55 0.2
13 22 0.65 0.19
13 23 0.15 0.15
13 24 0.5 0.24
13 25 0.71 0.21
13 26 0.56 0.23
13 27 0.58 0.24
13 28 0.58 0.2
13 29 0.64 0.24
13 30 0.27 0.13
13 31 0.58 0.38
13 32 0.36 0.19
13 33 0.5 0.1
13 34 0.34 0.25
13 35 0.05 0.05
13 36 0.28 0.28
13 37 0.62 0.18
13 38 0.57 0.25
13 39 0.52 0.24
14 15 0.72 0.26
14 16 0.47 0.21
14 17 0.6 0.19
14 18 0.48 0.26
14 19 0.5 0.1
14 20 0.57 0.21
14 21 0.48 0.21
14 22 0.52 0.12
14 23 0.76 0.34
14 24 0.47 0.06
14 25 0.54 0.14
14 26 0.54 0.18
14 27 0.64 0.26
14 28 0.36 0.02
14 29 0.3 0.11
14 30 0.66 0.14
14 31 0.66 0.33
14 32 0.65 0.19
14 33 0.41 0.19
14 34 0.63 0.2
14 35 0.73 0.27
14 36 0.63 0.26
14 37 0.3 0.11
14 38 0.64 0.2
14 39 0.7 0.16
15 16 0.64 0.23
15 17 0.68 0.16
15 18 0.7 0.28
15 19 0.66 0.23
15 20 0.38 0.22
15 21 0.56 0.26
15 22 0.9 0.22
15 23 0.43 0.15
15 24 0.62 0.3
15 25 0.58 0.24
15 26 0.68 0.23
15 27 0.71 0.23
15 28 0.73 0.26
15 29 0.62 0.18
15 30 0.34 0.19
15 31 0.6 0.37
15 32 0.33 0.14
15 33 0.66 0.13
15 34 0.46 0.2
15 35 0.33 0.11
15 36 0.56 0.3
15 37 0.57 0.21
15 38 0.48 0.25
15 39 0.76 0.27
16 17 0.54 0.21
16 18 0.76 0.32
16 19 0.62 0.28
16 20 0.6 0.3
16 21 0.57 0.07
16 22 0.7 0.33
16 23 0.47 0.32
16 24 0.76 0.23
16 25 0.82 0.34
16 26 0.62 0.22
16 27 0.56 0.18
16 28 0.72 0.19
16 29 0.73 0.2
16 30 0.5 0.3
16 31 0.58 0.25
16 32 0.56 0.22
16 33 0.56 0.27
16 34 0.6 0.28
16 35 0.57 0.22
16 36 0.55 0.24
16 37 0.57 0.28
16 38 0.35 0.18
16 39 0.56 0.28
17 18 0.45 0.22
17 19 0.48 0.11
17 20 0.64 0.37
17 21 0.5 0.17
17 22 0.79 0.26
17 23 0.51 0.22
17 24 0.22 0.21
17 25 0.7 0.26
17 26 0.48 0.21
17 27 0.09 0.07
17 28 0.69 0.21
17 29 0.48 0.27
17 30 0.42 0.12
17 31 0.51 0.3
17 32 0.55 0.02
17 33 0.63 0.27
17 34 0.38 0.08
17 35 0.45 0.12
17 36 0.41 0.22
17 37 0.43 0.19
17 38 0.6 0.23
17 39 0.57 0.25
18 19 0.86 0.16
18 20 0.5 0.38
18 21 0.62 0.28
18 22 0.58 0.32
18 23 0.48 0.13
18 24 0.67 0.32
18 25 0.7 0.32
18 26 0.46 0.18
18 27 0.36 0.29
18 28 0.67 0.28
18 29 0.72 0.28
18 30 0.39 0.22
18 31 0.51 0.34
18 32 0.65 0.24
18 33 0.83 0.36
18 34 0.67 0.3
18 35 0.5 0.23
18 36 0.61 0.26
18 37 0.7 0.37
18 38 0.42 0.22
18 39 0.8 0.36
19 20 0.74 0.26
19 21 0.76 0.23
19 22 0.54 0.21
19 23 0.38 0.26
19 24 0.58 0.16
19 25 0.8 0.22
19 26 0.62 0.1
19 27 0.57 0.18
19 28 0.52 0.12
19 29 0.37 0.16
19 30 0.74 0.19
19 31 0.46 0.37
19 32 0.52 0.09
19 33 0.5 0.26
19 34 0.74 0.15
19 35 0.48 0.23
19 36 0.72 0.18
19 37 0.63 0.21
19 38 0.5 0.12
19 39 0.57 0.26
20 21 0.46 0.34
20 22 0.74 0.25
20 23 0.63 0.37
20 24 0.66 0.23
20 25 0.55 0.27
20 26 0.56 0.2
20 27 0.55 0.4
20 28 0.7 0.19
20 29 0.38 0.1
20 30 0.72 0.31
20 31 0.68 0.38
20 32 0.71 0.35
20 33 0.74 0.34
20 34 0.54 0.38
20 35 0.53 0.33
20 36 0.52 0.28
20 37 0.56 0.32
20 38 0.72 0.23
20 39 0.58 0.33
21 22 0.37 0.31
21 23 0.7 0.27
21 24 0.72 0.23
21 25 0.47 0.29
21 26 0.46 0.17
21 27 0.44 0.18
21 28 0.62 0.19
21 29 0.72 0.24
21 30 0.69 0.25
21 31 0.3 0.18
21 32 0.56 0.15
21 33 0.57 0.28
21 34 0.64 0.21
21 35 0.6 0.25
21 36 0.71 0.17
21 37 0.56 0.21
21 38 0.79 0.11
21 39 0.58 0.25
22 23 0.52 0.24
22 24 0.78 0.18
22 25 0.56 0.02
22 26 0.54 0.18
22 27 0.74 0.33
22 28 0.64 0.14
22 29 0.78 0.23
22 30 0.59 0.22
22 31 0.5 0.35
22 32 0.66 0.24
22 33 0.33 0.09
22 34 0.8 0.3
22 35 0.6 0.24
22 36 0.55 0.24
22 37 0.6 0.17
22 38 0.72 0.2
22 39 0.74 0.23
23 24 0.65 0.39
23 25 0.56 0.22
23 26 0.7 0.28
23 27 0.6 0.29
23 28 0.48 0.35
23 29 0.63 0.33
23 30 0.42 0.28
23 31 0.57 0.32
23 32 0.34 0.2
23 33 0.48 0.25
23 34 0.49 0.26
23 35 0.1 0.1
23 36 0.43 0.36
23 37 0.7 0.29
23 38 0.72 0.3
23 39 0.5 0.23
24 25 0.5 0.2
24 26 0.5 0.23
24 27 0.31 0.28
24 28 0.62 0.04
24 29 0.54 0.13
24 30 0.34 0.16
24 31 0.7 0.27
24 32 0.63 0.22
24 33 0.62 0.23
24 34 0.16 0.16
24 35 0.55 0.29
24 36 0.62 0.31
24 37 0.65 0.17
24 38 0.41 0.26
24 39 0.35 0.17
25 26 0.48 0.16
25 27 0.64 0.33
25 28 0.49 0.16
25 29 0.63 0.25
25 30 0.52 0.2
25 31 0.5 0.33
25 32 0.42 0.24
25 33 0.48 0.11
25 34 0.58 0.3
25 35 0.66 0.26
25 36 0.7 0.22
25 37 0.38 0.19
25 38 0.73 0.18
25 39 0.66 0.25
26 27 0.57 0.28
26 28 0.52 0.19
26 29 0.66 0.1
26 30 0.6 0.28
26 31 0.45 0.35
26 32 0.48 0.19
26 33 0.53 0.2
26 34 0.63 0.25
26 35 0.6 0.18
26 36 0.31 0.08
26 37 0.54 0.28
26 38 0.46 0.06
26 39 0.5 0.22
27 28 0.6 0.24
27 29 0.39 0.3
27 30 0.38 0.19
27 31 0.42 0.28
27 32 0.46 0.09
27 33 0.61 0.34
27 34 0.37 0.15
27 35 0.53 0.19
27 36 0.5 0.29
27 37 0.34 0.26
27 38 0.62 0.29
27 39 0.57 0.2
28 29 0.66 0.09
28 30 0.48 0.12
28 31 0.72 0.31
28 32 0.4 0.21
28 33 0.56 0.19
28 34 0.62 0.2
28 35 0.58 0.25
28 36 0.44 0.27
28 37 0.66 0.13
28 38 0.37 0.22
28 39 0.48 0.14
29 30 0.64 0.21
29 31 0.54 0.28
29 32 0.7 0.25
29 33 0.58 0.28
29 34 0.5 0.28
29 35 0.64 0.27
29 36 0.36 0.18
29 37 0.6 0.22
29 38 0.38 0.13
29 39 0.58 0.23
30 31 0.58 0.38
30 32 0.32 0.1
30 33 0.63 0.23
30 34 0.37 0.16
30 35 0.32 0.18
30 36 0.55 0.34
30 37 0.36 0.24
30 38 0.62 0.22
30 39 0.69 0.26
31 32 0.6 0.28
31 33 0.47 0.28
31 34 0.59 0.22
31 35 0.63 0.38
31 36 0.68 0.32
31 37 0.72 0.36
31 38 0.59 0.29
31 39 0.64 0.35
32 33 0.33 0.27
32 34 0.47 0.06
32 35 0.38 0.14
32 36 0.55 0.24
32 37 0.46 0.21
32 38 0.7 0.21
32 39 0.81 0.27
33 34 0.78 0.33
33 35 0.55 0.15
33 36 0.22 0.22
33 37 0.27 0.08
33 38 0.74 0.22
33 39 0.74 0.14
34 35 0.39 0.2
34 36 0.62 0.3
34 37 0.71 0.27
34 38 0.25 0.22
34 39 0.51 0.31
35 36 0.33 0.26
35 37 0.63 0.23
35 38 0.62 0.2
35 39 0.57 0.29
36 37 0.38 0.29
36 38 0.52 0.14
36 39 0.8 0.3
37 38 0.63 0.3
37 39 0.82 0.06
38 39 0.68 0.28
